c description: Pigeonhole principle formula for 3 pigeons and 2 holes
c generator: CNFgen (0.9.2)
c copyright: (C) 2012-2022 Massimo Lauria <massimo.lauria@uniroma1.it>
c url: https://massimolauria.net/cnfgen
c command line: cnfgen --varnames --output php_3p2h.cnf php 3 2
c
c varname 1 p_{1,1}
c varname 2 p_{1,2}
c varname 3 p_{2,1}
c varname 4 p_{2,2}
c varname 5 p_{3,1}
c varname 6 p_{3,2}
c
p cnf 6 9
1 2 0
3 4 0
5 6 0
-1 -3 0
-1 -5 0
-3 -5 0
-2 -4 0
-2 -6 0
-4 -6 0
